52
2 17 135
17 30 80
30 21 104
21 31 97
31 48 50
48 35 81
35 34 15
34 33 21
33 38 59
38 39 43
39 36 41
36 45 139
45 43 131
43 15 132
15 49 130
49 19 35
19 22 94
22 29 179
29 20 242
20 16 253
16 41 408
41 6 76
6 1 45
1 52 150
52 28 645
28 46 523
46 12 324
12 13 206
13 51 319
51 10 399
10 50 285
50 11 188
11 27 182
27 26 110
26 25 126
25 24 412
24 3 109
3 5 70
5 4 35
4 23 32
23 47 16
47 37 49
37 14 61
14 42 242
42 32 365
32 9 501
9 8 83
8 7 183
7 40 64
40 18 92
18 44 75
44 2 220

